letting maxWeight=79
letting values=[11, 23, 15, 29, 27, 28, 3, 32, 22, 25, 7, 9, 27, 3, 14, 20, 3, 12, 24, 7, 19, 4, 24, 11, 28, 10, 5, 11, 29, 13, 15, 25, 24, 9, 25, 32, 8, 14, 29, 24, 26, 11, 16, 12, 6, 27, 25, 31, 31, 6, 14, 17, 17, 31, 32, 10, 27, 15, 32, 30, 2, 32, 13, 9, 17, 25, 11, 19]
letting weights=[19, 20, 11, 32, 13, 33, 9, 3, 14, 13, 31, 10, 31, 9, 19, 32, 8, 13, 11, 29, 17, 4, 28, 22, 26, 1, 27, 5, 18, 26, 12, 1, 5, 28, 15, 24, 32, 26, 24, 11, 10, 16, 14, 15, 19, 29, 6, 27, 22, 32, 24, 22, 31, 27, 31, 3, 5, 9, 26, 32, 28, 2, 7, 12, 5, 5, 28, 31]
